
Gurobi 6.5.2 (linux64) logging started Tue Sep 20 21:24:25 2016


Gurobi 6.5.2 (linux64) logging started Tue Sep 20 21:24:25 2016

Optimize a model with 201 rows, 3565 columns and 7131 nonzeros
Coefficient statistics:
  Matrix range    [1e+00, 2e+00]
  Objective range [1e+00, 1e+02]
  Bounds range    [1e+00, 1e+00]
  RHS range       [1e+00, 1e+00]
Presolve removed 101 rows and 100 columns
Presolve time: 0.01s
Presolved: 100 rows, 3465 columns, 6930 nonzeros
Variable types: 0 continuous, 3465 integer (3465 binary)

Root relaxation: objective 8.310000e+02, 146 iterations, 0.00 seconds

    Nodes    |    Current Node    |     Objective Bounds      |     Work
 Expl Unexpl |  Obj  Depth IntInf | Incumbent    BestBd   Gap | It/Node Time

     0     0  831.00000    0    6          -  831.00000      -     -    0s
     0     0  832.66667    0    8          -  832.66667      -     -    0s
     0     0  833.00000    0   11          -  833.00000      -     -    0s
     0     0  833.00000    0   15          -  833.00000      -     -    0s
     0     0  833.00000    0   15          -  833.00000      -     -    0s
     0     0  833.00000    0   15          -  833.00000      -     -    0s
     0     2  833.00000    0   15          -  833.00000      -     -    0s
  1440  1249  838.00000   22   57          -  835.56956      -   6.1    5s
  5532  3406  847.33333   67   11          -  836.09189      -   6.2   10s

Cutting planes:
  Gomory: 3
  MIR: 3
  Flow cover: 3
  Zero half: 9
  Mod-K: 1
  Lazy constraints: 797

Explored 6026 nodes (37875 simplex iterations) in 10.09 seconds
Thread count was 8 (of 8 available processors)

Time limit reached
Best objective -, best bound 8.370000000000e+02, gap -
